60
682
4
44
3
22
21
0 13
0 18
0 20
0 22
0 23
0 25
0 27
0 31
0 35
0 37
0 39
0 42
0 43
0 49
0 50
0 51
0 54
0 57
0 58
0 59
1 5
1 6
1 8
1 12
1 14
1 15
1 16
1 20
1 21
1 24
1 25
1 28
1 32
1 33
1 34
1 36
1 37
1 45
1 47
1 49
1 52
1 56
2 3
2 10
2 11
2 12
2 13
2 14
2 15
2 17
2 18
2 21
2 22
2 23
2 24
2 26
2 27
2 30
2 35
2 38
2 39
2 41
2 42
2 43
2 44
2 46
2 49
2 52
2 56
3 4
3 6
3 7
3 9
3 11
3 14
3 17
3 18
3 22
3 30
3 35
3 36
3 37
3 39
3 40
3 41
3 45
3 46
3 49
3 50
3 52
3 57
4 5
4 8
4 16
4 19
4 21
4 26
4 29
4 30
4 33
4 40
4 43
4 45
4 48
4 50
4 51
4 52
4 53
4 54
4 56
5 7
5 9
5 10
5 11
5 16
5 18
5 21
5 27
5 28
5 32
5 39
5 40
5 41
5 42
5 44
5 46
5 48
5 50
5 51
5 54
5 56
5 57
6 17
6 19
6 20
6 21
6 23
6 24
6 25
6 26
6 28
6 36
6 37
6 38
6 41
6 42
6 47
6 48
6 49
6 51
6 53
6 54
6 57
6 58
7 8
7 10
7 11
7 12
7 13
7 14
7 16
7 17
7 19
7 22
7 27
7 28
7 32
7 33
7 36
7 39
7 40
7 41
7 42
7 43
7 44
7 46
7 48
7 50
7 51
7 52
7 56
7 58
7 59
8 10
8 12
8 14
8 15
8 19
8 20
8 24
8 31
8 32
8 41
8 42
8 44
8 45
8 47
8 48
8 56
9 10
9 11
9 12
9 13
9 14
9 18
9 26
9 27
9 28
9 29
9 36
9 40
9 45
9 48
9 49
9 54
10 12
10 13
10 15
10 18
10 22
10 24
10 26
10 27
10 29
10 30
10 32
10 33
10 34
10 35
10 37
10 44
10 45
10 52
10 53
10 56
10 59
11 12
11 14
11 18
11 25
11 29
11 33
11 34
11 36
11 37
11 38
11 41
11 42
11 44
11 46
11 54
11 56
11 57
12 13
12 14
12 16
12 20
12 22
12 23
12 27
12 28
12 35
12 36
12 37
12 46
12 52
12 57
13 18
13 19
13 21
13 22
13 23
13 24
13 26
13 27
13 30
13 34
13 35
13 37
13 44
13 48
13 50
13 52
14 16
14 19
14 20
14 21
14 22
14 24
14 27
14 32
14 35
14 36
14 37
14 41
14 42
14 43
14 46
14 49
14 50
14 51
14 53
14 56
14 57
14 58
14 59
15 16
15 17
15 21
15 29
15 31
15 32
15 33
15 36
15 39
15 41
15 42
15 43
15 45
15 49
15 58
16 17
16 18
16 26
16 28
16 29
16 33
16 34
16 38
16 40
16 43
16 45
16 49
16 50
16 51
16 52
16 54
16 56
16 57
16 58
17 20
17 21
17 24
17 26
17 30
17 32
17 40
17 42
17 46
17 49
17 50
17 52
18 19
18 23
18 25
18 26
18 27
18 31
18 35
18 36
18 41
18 42
18 47
18 49
18 50
18 51
18 52
18 54
18 56
18 57
18 58
19 23
19 29
19 34
19 36
19 38
19 40
19 42
19 43
19 47
19 50
19 51
19 53
19 54
19 59
20 21
20 25
20 27
20 28
20 34
20 39
20 41
20 47
20 49
20 50
20 57
20 58
21 29
21 30
21 33
21 34
21 35
21 37
21 40
21 41
21 44
21 46
21 53
21 54
21 55
21 57
21 58
21 59
22 23
22 24
22 28
22 29
22 39
22 40
22 41
22 44
22 48
22 49
22 54
22 55
22 56
22 57
22 59
23 24
23 25
23 26
23 30
23 31
23 32
23 35
23 41
23 42
23 46
23 52
23 54
23 56
23 58
23 59
24 25
24 30
24 34
24 37
24 39
24 40
24 41
24 43
24 46
24 51
24 53
24 54
24 56
25 26
25 30
25 33
25 35
25 37
25 42
25 45
25 46
25 48
25 50
25 56
26 28
26 34
26 35
26 37
26 44
26 46
26 54
26 55
26 56
27 29
27 32
27 39
27 41
27 48
27 50
27 53
27 56
28 31
28 33
28 36
28 40
28 44
28 49
28 52
28 53
28 54
28 57
29 30
29 32
29 34
29 36
29 39
29 40
29 43
29 44
29 45
29 46
29 47
29 49
29 53
29 54
29 59
30 33
30 36
30 39
30 42
30 49
30 50
30 55
30 58
31 33
31 34
31 40
31 41
31 45
31 46
31 51
31 52
31 53
31 55
31 58
31 59
32 35
32 37
32 41
32 44
32 46
32 47
32 48
32 53
32 55
32 56
32 57
33 34
33 36
33 37
33 41
33 42
33 43
33 46
33 49
33 50
33 52
33 54
33 56
34 36
34 38
34 43
34 46
34 48
34 52
34 54
34 56
34 57
34 59
35 48
35 54
35 56
36 37
36 39
36 42
36 45
36 47
36 48
36 51
36 53
36 55
36 56
36 58
37 39
37 49
37 51
37 53
37 55
38 40
38 42
38 46
38 47
38 48
38 50
38 52
38 53
38 54
39 43
39 44
39 45
39 49
39 50
39 51
39 52
39 53
39 54
39 57
39 59
40 41
40 48
40 50
40 55
41 42
41 43
41 45
41 46
41 47
41 51
41 53
41 58
42 43
42 45
42 48
42 49
42 51
42 58
42 59
43 47
43 48
43 49
43 52
43 53
43 55
43 58
44 46
44 48
44 54
44 55
44 58
44 59
45 46
45 47
45 49
45 50
45 52
45 57
45 58
45 59
46 49
46 51
46 52
46 55
46 56
46 59
47 49
47 51
47 52
47 54
47 56
47 58
48 50
48 52
48 54
48 55
48 57
48 58
49 52
49 56
50 55
50 58
50 59
51 52
51 53
51 54
51 55
51 59
52 53
52 55
52 57
53 55
53 57
54 57
54 58
55 56
55 57
55 59
56 57
56 59
58 59
34 42 22 14 18 50 49 41 24 9 30 48 54 39 59 55 45 7
47 35 8 17 5 37 2 44 43 46 51 57 27 0 3 15 36 20
11 29 28 12 1 31 25 58 6 52 21 40 38 4 33 19 13 32
16 53 56 26 23 10
